100 1492
447 483 425 609 514 998 34 304 495 743 400 32 612 535 336 809 735 599 427 966 954 780 677 829 370 203 457 20 523 677 590 125 189 156 180 354 946 444 951 976 517 18 602 664 339 96 909 817 109 230 344 983 164 618 269 895 387 161 865 912 297 595 394 42 379 970 690 66 261 26 522 180 2 890 727 703 719 994 17 244 764 899 278 647 666 529 539 148 565 459 187 802 986 241 45 579 466 237 89 705 
274 571 61 658 535 792 560 370 584 889 6 466 919 139 383 27 896 911 628 933 176 254 279 589 407 127 933 126 624 462 596 970 382 516 895 760 423 35 223 517 258 888 489 20 898 345 876 776 938 663 825 751 112 235 99 622 276 689 567 473 327 833 162 761 894 355 359 941 719 240 320 972 305 22 578 471 237 730 739 201 872 580 461 664 264 808 306 435 69 290 479 91 71 294 459 668 844 375 879 467 
